48468 72324
48664 71960
48944 72632
49532 74648
49700 71288
50232 59192
50428 71652
50540 71288
50764 74648
50960 70980
51548 72632
319704 327320
319872 327012
321440 306852
322280 329700
322280 330372
422800 413336
423220 412356
423276 413700
423388 412664
423556 415352
423836 414680
424284 413700
424928 413336
424928 415044
425124 413700
425124 415352
425152 412664
425152 416024
425936 413336
425936 414372
426160 412356
426160 416388
426720 413336
296324 531608
296744 531608
297220 531300
297220 531972
352352 429156
353892 429156
354480 429828
357644 427812
373996 425796
381808 427448
382060 365988
382228 362936
383068 361956
384748 361592
389172 362628
390096 362628
